N = 12;
H = 5;
T = 2;

avail = array3d(1..N, 1..H, 1..T, [8, 8, 5, 5, 6, 10, 8, 7, 2, 1, 2, 6, 6, 2, 10, 8, 9, 10, 6, 2, 7, 0, 8, 2, 7, 8, 0, 7, 6, 9, 4, 6, 6, 5, 8, 1, 0, 6, 6, 6, 0, 1, 3, 9, 7, 1, 4, 5, 1, 3, 7, 5, 4, 9, 10, 7, 7, 9, 2, 2, 6, 2, 0, 9, 3, 9, 6, 4, 5, 1, 4, 9, 7, 6, 2, 10, 6, 9, 1, 4, 9, 0, 2, 9, 9, 1, 7, 6, 1, 8, 6, 9, 3, 2, 9, 5, 5, 3, 3, 4, 6, 1, 9, 2, 0, 4, 7, 7, 0, 10, 0, 10, 0, 1, 10, 8, 8, 1, 4, 5]);

r = array2d(1..H, 1..T, [0, 5, 2, 3, 4, 5, 2, 1, 5, 2]);
